ACTORES = {Actor1, Actor2, Actor3, Actor4, Actor5, Actor6, Actor7} ;

Escenas = [| 0,1,0,0,0,0,1,0,0,10
           | 0,1,1,1,0,1,1,1,1,20
           | 1,1,1,1,0,1,0,0,1,5
           | 0,1,1,1,0,0,1,1,1,5
           | 1,0,0,0,1,1,0,0,0,15
           | 0,0,0,0,1,0,0,1,0,19
           | 0,1,0,0,1,0,0,0,0,8|]; 
           
           
Duracion = [2,1,1,1,3,4,2,3,1];

% Ejecución con Chuffed

% ----------
% [1, 5, 8, 6, 2, 7, 3, 9, 4]
% Costo: 827
% ----------
% ==========
% Finished in 356msec
